 C Mo 
 1.0000000000000000
    14.7796811216854014   -0.0000000000004422    0.0000000000000000
    -7.3898405611434841   12.7995793111812244    0.0000000000000000
     0.0000000000000000    0.0000000000000000   20.0000000000000000
 C   Mo 
  71   3
Cartesian
  4.9291068231503425  8.5404255020011544  0.0000000000000000
  6.1657069048585038  9.2520463732802511  0.0000000000000000
  3.6999444017628056 10.6692167706042831  0.0000000000000000
  4.9153163506036304 11.3709120919976403  0.0000000000000000
  2.4709382944118561 12.7980982871585081  0.0000000000000000
 11.0953606491772359  0.7136356247659519  0.0000000000000000
  8.6236808431646104  2.1333835835620305  0.0000000000000000
  9.8535208184359728  2.8441200194051319  0.0000000000000000
  7.3898405607423356  4.2665264370605973  0.0000000000000000
  8.6218503400230784  4.9778276143370972  0.0000000000000000
  6.1594048008432623  6.4016348925532673  0.0000000000000000
  7.3898405976913981  7.1113393351533771  0.0000000000000000
  7.3898405606417317  8.5411592846852269  0.0000000000000000
  8.6139742904239469  9.2520463732802689  0.0000000000000000
  6.1652461259367781 10.6979285972917832  0.0000000000000000
  7.3898405975916566 11.3446992295513116  0.0000000000000000
  4.9574604351003799 12.7898747783844229  0.0000000000000000
 13.5197180304052598  0.7274400722062829  0.0000000000000000
 11.0917811986968822  2.1292100132473060  0.0000000000000000
 12.3194943419107883  2.8338973759176347  0.0000000000000000
  9.8541166029636909  4.2645608350643318  0.0000000000000000
 11.0858096144331579  4.9728939725460251  0.0000000000000000
  8.6202763205413770  6.4016348925531936  0.0000000000000000
  9.8495573180546128  7.1141457607556466  0.0000000000000000
 -4.9291068235512068  8.5404255020016322  0.0000000000000000
 -3.6960812235214866  9.2414657595220273  0.0000000000000000
 -6.1652461264398344 10.6979285972922433  0.0000000000000000
 -4.9153162771059051 11.3709120919981164  0.0000000000000000
  1.2599631652773147  0.7274400722067406  0.0000000000000000
 -1.2077856908368543  2.1113552466853220  0.0000000000000000
  0.0000000369486662  2.8573345011502460  0.0000000000000000
 -2.4581685287385575  4.2606348332018324  0.0000000000000000
 -1.2345370562587454  4.9779461969307484  0.0000000000000000
 -3.6942947514830919  6.4001508049788205  0.0000000000000000
 -2.4651352752694597  7.1098063590124108  0.0000000000000000
 -2.4659169087973849  8.5342704158104414  0.0000000000000000
 -1.2335185836888065  9.2452252026360284  0.0000000000000000
 -3.6999444022645109 10.6692167706047769  0.0000000000000000
 -2.4615441304148393 11.3797467286937177  0.0000000000000000
  2.4323801254419912 -0.0097045327963232  0.0000000000000000
  3.6843205465070370  0.7136356247664463  0.0000000000000000
  1.2077856907378850  2.1113552466853407  0.0000000000000000
  2.4601868536740961  2.8338973759181112  0.0000000000000000
 -0.0000000000998622  4.2607250811529500  0.0000000000000000
  1.2345371300566748  4.9779461969307652  0.0000000000000000
 -1.2319040324152923  6.3968974168158113  0.0000000000000000
  0.0000000368490761  7.1087082798754713  0.0000000000000000
 -0.0000000002004172  8.5330528741201839  0.0000000000000000
  1.2335186572857597  9.2452252026349537  0.0000000000000000
 -1.2340128765819793 10.6679907897372637  0.0000000000000000
  0.0000000367484514 11.3795459671223202  0.0000000000000000
  4.9189022661301340 -0.0014810240222054  0.0000000000000000
  6.1535883015134907  0.7125396406624250  0.0000000000000000
  3.6878999228887133  2.1292100132478016  0.0000000000000000
  4.9261603771473812  2.8441200194056431  0.0000000000000000
  2.4581685285377839  4.2606348332018680  0.0000000000000000
  3.6938715810505123  4.9728939725465207  0.0000000000000000
  1.2319040321144354  6.3968974168148272  0.0000000000000000
  2.4651353489665646  7.1098063590114453  0.0000000000000000
  2.4659169083962844  8.5342704158093845  0.0000000000000000
  3.6960812971196626  9.2414657595209881  0.0000000000000000
  1.2340128760809126 10.6679907897371908  0.0000000000000000
  2.4615442039117821 11.3797467286936609  0.0000000000000000
  7.3898405608430329 -0.0007222987757265  0.0000000000000000
  8.6260928941703607  0.7125396406623510  0.0000000000000000
  6.1560002784207883  2.1333835835625590  0.0000000000000000
  7.3898405977919968  2.8439241452907935  0.0000000000000000
  4.9255645185218055  4.2645608350648443  0.0000000000000000
  6.1578308554603103  4.9778276143366256  0.0000000000000000
  3.6942947511820798  6.4001508049778719  0.0000000000000000
  4.9301238773286284  7.1141457607551573  0.0000000000000000
  9.5884965590353044 15.1123950919775929  3.3098153187668196
  7.8879109194735229 14.7002119313960335  4.5985377850415379
  7.4711834157438073 14.3340539607287401  2.5000000000000000
