ISPIN = 2
NUPDOWN = 2
MAGMOM = 71*0 3*1
ICHARG = 2
EDIFF = 5e-5
LORBIT = 11
EDIFFG = -0.05
ENCUT=400
IBRION =2
ISIF = 2
NSW= 5000
ISMEAR =0
SIGMA = 0.05
LCHARG = FALSE 
LWAVE = FALSE 
NELM = 5000
ISYM = 0
IVDW = 12
VOSKOWN = 1
KSPACING =0.99
NCORE =8 
